c --- [ banner ] -------------------------------------------------------------
c 
c CaDiCaL Radically Simplified CDCL SAT Solver
c Copyright (c) 2016-2021 A. Biere, M. Fleury, N. Froleyks
c 
c Version 1.5.2 ca9bff05c11bde5eae4912f9932871d1527e61d8
c g++ (GCC) 9.3.0 -Wall -Wextra -O3 -DNDEBUG
c Sun May 1 02:23:23 EDT 2022 Linux gra-login1 3.10.0-1160.59.1.el7.x86_64 x86_64
c 
c --- [ limit ] --------------------------------------------------------------
c 
c setting conflict limit to 200000 conflicts (due to '200000')
c 
c --- [ parsing input ] ------------------------------------------------------
c 
c reading DIMACS file from '12.cubes17.adj'
c opening file to read '12.cubes17.adj'
c found 'p cnf 5320 924206' header
c parsed 924206 clauses in 8.92 seconds process time
c closing file '12.cubes17.adj'
c after reading 686668089 bytes 654.9 MB
c 
c --- [ options ] ------------------------------------------------------------
c 
c all options are set to their default value
c 
c --- [ solving ] ------------------------------------------------------------
c 
c time measured in process time since initialization
c 
c  seconds   reductions  redundant  irredundant
c          MB    restarts       trail      variables
c           level   conflicts       glue        remaining
c 
c *  8.92 684  0 0   0    0    0  0% 0 923580 3980 75%
c {  9.26 701  0 0   0    0    0  0% 0 923580 3980 75%
c i 10.22 732 37 0   0   74   50 49% 5 923580 3929 74%
c i 10.66 734 24 0  18  194   92 45% 7 923580 3925 74%
c - 12.84 704 27 1  47  302  140 47% 13 144704 3925 74%
c i 12.90 686 27 1  48  310  147 47% 13 144704 3924 74%
c i 12.90 686 27 1  49  313  149 47% 14 144704 3923 74%
c i 13.09 686 17 1  60  795  208 44% 10 144704 3922 74%
c i 13.14 686 19 1  62  806  218 44% 10 144704 3921 74%
c i 13.20 686 20 1  64  814  225 44% 10 144704 3920 74%
c i 13.20 686 20 1  64  815  225 44% 10 144704 3919 74%
c i 13.26 686 20 1  67  825  233 45% 11 144704 3918 74%
c i 13.26 686 20 1  67  826  233 45% 11 144704 3917 74%
c i 13.26 686 20 1  67  827  233 45% 11 144704 3916 74%
c i 13.26 686 20 1  68  831  236 45% 11 144704 3915 74%
c i 13.27 686 20 1  70  838  239 45% 11 144704 3914 74%
c i 13.27 686 20 1  70  839  239 45% 11 144704 3913 74%
c i 13.27 686 20 1  71  840  239 45% 11 144704 3912 74%
c i 13.27 686 20 1  71  841  239 45% 11 144704 3911 74%
c i 13.27 686 20 1  71  842  239 45% 11 144704 3910 73%
c 
c  seconds   reductions  redundant   irredundant
c          MB    restarts       trail       variables
c           level   conflicts       glue         remaining
c 
c i 13.31 686 20 1  73  848  244 45% 11 144704 3909 73%
c i 13.42 686 22 1  80  882  266 45% 11 144704 3908 73%
c - 13.74 712 20 2  88  998  261 44% 10 144653 3908 73%
c } 13.74 712 20 2  88 1001  264 44% 10 144653 3908 73%
c [ 13.74 712  0 2  88 1001  264  0% 0 144653 3908 73%
c O 13.74 712  3 2  88 1002  265 40% 3 144653 3908 73%
c i 13.80 712  8 2  88 1285  294 41% 8 144653 3907 73%
c i 13.80 712  8 2  88 1286  294 41% 8 144653 3906 73%
c i 13.80 712  8 2  88 1288  295 41% 8 144653 3905 73%
c i 13.80 712  8 2  88 1289  295 42% 8 144653 3904 73%
c i 13.81 712  8 2  88 1293  297 42% 8 144653 3903 73%
c i 13.84 712  9 2  88 1305  305 42% 8 144653 3902 73%
c i 13.84 712  9 2  88 1311  309 43% 8 144653 3901 73%
c i 13.84 712  9 2  88 1314  311 43% 8 144653 3900 73%
c i 13.85 712  9 2  88 1324  315 43% 9 144653 3899 73%
c i 13.85 712  9 2  88 1330  319 44% 9 144653 3898 73%
c i 13.86 712 10 2  88 1344  318 44% 9 144653 3897 73%
c i 13.87 712 10 2  88 1363  330 45% 9 144653 3896 73%
c i 13.87 712 10 2  88 1380  341 46% 9 144653 3895 73%
c i 13.87 712 10 2  88 1381  341 46% 9 144653 3894 73%
c 
c  seconds   reductions  redundant  irredundant
c          MB    restarts       trail      variables
c           level   conflicts       glue        remaining
c 
c i 13.87 712 10 2  88 1392  345 46% 9 144653 3893 73%
c i 13.87 712 10 2  88 1396  344 46% 9 144653 3892 73%
c i 13.88 712 10 2  88 1405  351 47% 9 144653 3891 73%
c i 13.88 712 11 2  88 1438  368 48% 10 144653 3890 73%
c i 13.90 712 11 2  88 1464  385 48% 10 144653 3889 73%
c i 13.92 712 11 2  88 1507  408 49% 10 144653 3888 73%
c i 13.95 712 11 2  88 1593  464 50% 10 144653 3887 73%
c i 13.95 712 11 2  88 1611  474 50% 10 144653 3886 73%
c i 13.97 712 12 2  88 1642  495 51% 11 144653 3885 73%
c i 14.00 712 14 2  88 1741  571 51% 12 144653 3884 73%
c i 14.00 712 14 2  88 1744  573 52% 12 144653 3883 73%
c i 14.00 712 14 2  88 1748  576 52% 12 144653 3882 73%
c i 14.01 712 14 2  88 1783  582 51% 12 144653 3881 73%
c i 14.02 712 14 2  88 1810  602 52% 12 144653 3880 73%
c i 14.02 712 14 2  88 1811  602 52% 12 144653 3879 73%
c i 14.03 712 14 2  88 1812  602 52% 12 144653 3878 73%
c i 14.03 712 14 2  88 1824  613 52% 12 144653 3877 73%
c i 14.03 712 14 2  88 1830  615 52% 12 144653 3876 73%
c i 14.04 712 14 2  88 1858  640 52% 12 144653 3875 73%
c i 14.05 712 14 2  88 1882  656 52% 12 144653 3874 73%
c 
c  seconds   reductions  redundant   irredundant
c          MB    restarts       trail       variables
c           level   conflicts       glue         remaining
c 
c i 14.05 712 14 2  88 1892  663 52% 12 144653 3873 73%
c i 14.05 712 14 2  88 1896  666 52% 12 144653 3872 73%
c i 14.06 712 14 2  88 1938  696 52% 12 144653 3871 73%
c i 14.08 712 15 2  88 1997  742 52% 12 144653 3870 73%
c i 14.08 712 15 2  88 1998  742 52% 12 144653 3869 73%
c i 14.08 712 15 2  88 1999  742 52% 12 144653 3868 73%
c i 14.08 712 14 2  88 2029  749 52% 12 144653 3867 73%
c i 14.08 712 14 2  88 2030  749 52% 12 144653 3866 73%
c i 14.08 712 14 2  88 2031  749 52% 12 144653 3865 73%
c i 14.08 712 14 2  88 2032  749 52% 12 144653 3864 73%
c - 14.23 710 14 3  89 2043  669 52% 12 144521 3864 73%
c i 14.33 709 14 3  89 2049  674 33% 12 144521 3863 73%
c i 14.33 709 14 3  89 2050  674 33% 12 144521 3862 73%
c i 14.39 709 14 3  89 2144  704 30% 12 144521 3861 73%
c i 14.42 709 14 3  89 2187  736 33% 12 144521 3860 73%
c i 14.42 709 14 3  89 2188  736 33% 12 144521 3859 73%
c i 14.42 709 14 3  89 2192  739 33% 12 144521 3858 73%
c i 14.42 709 14 3  89 2195  739 33% 12 144521 3857 72%
c i 14.43 709 14 3  89 2227  752 32% 12 144521 3856 72%
c i 14.46 709 15 3  89 2322  801 35% 12 144521 3855 72%
c 
c  seconds   reductions  redundant   irredundant
c          MB    restarts       trail       variables
c           level   conflicts       glue         remaining
c 
c i 14.59 709 15 3  89 2946 1096 36% 13 144521 3854 72%
c ] 14.60 709 15 3  89 3001 1111 36% 13 144521 3854 72%
c { 14.60 709 20 3  89 3001 1111 61% 10 144521 3854 72%
c F 14.61 709 20 3  89 3004 1111 61% 10 144521 3854 72%
c i 14.61 709 20 3  89 3004 1111 61% 10 144521 3853 72%
c i 14.61 709 20 3  89 3005 1111 61% 10 144521 3852 72%
c i 14.61 709 20 3  89 3006 1111 61% 10 144521 3851 72%
c i 14.67 709 20 3  89 3036 1134 60% 10 144521 3850 72%
c i 14.70 709 20 3  89 3047 1142 60% 10 144521 3849 72%
c i 14.74 709 20 3  94 3067 1156 59% 11 144521 3848 72%
c i 15.02 709 21 3 130 3269 1226 54% 11 144521 3847 72%
c i 15.09 709 21 3 138 3296 1248 53% 12 144521 3846 72%
c i 15.11 709 22 3 140 3304 1255 53% 12 144521 3845 72%
c i 15.17 709 22 3 146 3332 1280 53% 12 144521 3844 72%
c i 15.20 709 23 3 154 3362 1303 53% 12 144521 3843 72%
c i 15.22 709 23 3 155 3366 1306 52% 12 144521 3842 72%
c - 15.52 708 23 4 172 3441 1013 51% 12 144455 3842 72%
c i 15.61 708 20 4 174 3859 1035 44% 12 144455 3841 72%
c i 15.63 708 20 4 175 3866 1041 44% 12 144455 3840 72%
c i 15.67 708 21 4 183 3894 1064 44% 12 144455 3839 72%
c 
c  seconds   reductions  redundant   irredundant
c          MB    restarts       trail       variables
c           level   conflicts       glue         remaining
c 
c i 15.70 708 21 4 188 3913 1081 44% 13 144455 3838 72%
c i 15.70 708 21 4 189 3914 1081 44% 13 144455 3837 72%
c i 15.72 708 22 4 190 3921 1087 44% 13 144455 3836 72%
c i 15.72 708 22 4 191 3923 1087 44% 13 144455 3835 72%
c i 15.85 708 24 4 207 3982 1135 43% 14 144455 3834 72%
c i 15.86 708 24 4 209 3996 1147 43% 14 144455 3833 72%
c i 15.89 708 24 4 214 4011 1159 43% 14 144455 3832 72%
c i 15.90 708 24 4 216 4017 1164 43% 14 144455 3831 72%
c i 15.92 708 25 4 218 4026 1172 43% 14 144455 3830 72%
c i 16.18 708 25 4 244 4354 1397 42% 14 144455 3829 72%
c i 16.28 708 24 4 244 4497 1431 42% 13 144455 3828 72%
c i 16.49 708 23 4 247 4725 1577 41% 13 144455 3827 72%
c 2 17.01 708 25 4 308 5001 4037 40% 14 144339 3813 72%
c p 18.67 708 25 4 308 5001 13512 40% 14 144339 3751 71%
c d 18.83 708 25 4 308 5001 12411 40% 14 143471 3749 70%
c d 18.89 708 25 4 308 5001 12401 40% 14 143466 3747 70%
c - 19.27 669 26 5 341 5181 1698 39% 14 143466 3747 70%
c # 19.68 669 27 5 376 6005 2003 36% 14 143466 3747 70%
c } 20.79 669 27 5 462 7001 2684 36% 14 143466 3747 70%
c [ 20.79 669 15 5 462 7001 2684 36% 13 143466 3747 70%
c 
c  seconds   reductions  redundant   irredundant
c          MB    restarts       trail       variables
c           level   conflicts       glue         remaining
c 
c - 20.93 669 15 6 463 7263 2201 36% 13 143466 3747 70%
c - 21.63 669 14 7 464 9693 2574 36% 12 143466 3747 70%
c I 21.75 669 14 7 464 10010 2710 37% 12 143466 3747 70%
c - 22.93 669 17 8 466 12470 3119 37% 15 143466 3747 70%
c ] 23.93 669 19 8 467 15003 4577 38% 16 143466 3747 70%
c { 23.93 669 27 8 467 15003 4577 36% 14 143466 3747 70%
c 2 23.97 669 27 8 467 15003 6324 36% 14 143448 3747 70%
c p 24.97 669 27 8 467 15003 14009 36% 14 143448 3746 70%
c B 25.06 669 27 8 469 15014 14020 36% 14 143448 3746 70%
c - 25.61 669 26 9 526 15597 3781 36% 15 143445 3746 70%
c s 25.81 669 26 9 526 15717 3632 36% 15 140621 3746 70%
c v 26.68 669 26 9 526 15717 3632 36% 15 140523 3746 70%
c w 26.73 669 26 9 526 15717 3632 36% 15 140523 3746 70%
c t 26.74 669 26 9 526 15717 3590 36% 15 140441 3746 70%
c e 27.05 669 26 9 526 15717 3188 36% 15 135184 936 18%
c s 27.16 669 26 9 526 15717 3186 36% 15 134846 936 18%
c - 28.62 670 21 10 575 19067 3582 62% 12 134846 936 18%
c W 29.29 670 19 10 582 21018 4550 63% 12 134846 936 18%
c - 29.91 670 18 11 584 22797 4087 63% 11 134846 936 18%
c i 30.00 670 17 11 584 23124 4231 63% 11 134846 935 18%
c 
c  seconds   reductions     redundant   irredundant
c          MB     restarts         trail       variables
c           level      conflicts       glue        remaining
c 
c - 33.17 670 20 12 1257 26867 3461 61% 13 134843 935 18%
c F 33.70 670 19 12 1285 28019 4084 61% 13 134843 935 18%
c d 35.19 670 19 12 1463 30004 5050 60% 13 130447 934 18%
c p 36.06 670 19 12 1463 30004 8259 60% 13 130447 926 17%
c } 36.54 670 19 12 1556 31003 8685 60% 13 130447 926 17%
c [ 36.54 670 19 12 1556 31003 8685 157% 16 130447 926 17%
c - 36.77 670 19 13 1556 31273 4342 154% 16 130424 926 17%
c - 38.43 670 22 14 1559 35960 5469 122% 19 130424 926 17%
c B 38.48 670 22 14 1559 36021 5503 122% 19 130424 926 17%
c - 40.24 670 21 15 1562 40982 5695 105% 18 130424 926 17%
c s 42.09 670 21 15 1563 44400 7751 98% 17 130096 926 17%
c v 43.46 670 21 15 1563 44400 7751 98% 17 130049 926 17%
c t 43.51 670 21 15 1563 44400 7751 98% 17 130046 926 17%
c e 43.78 670 21 15 1563 44400 7737 98% 17 129900 874 16%
c s 43.92 670 21 15 1563 44400 7736 98% 17 129716 874 16%
c W 45.12 670 21 15 1563 45023 8086 97% 17 129716 874 16%
c - 45.66 670 21 16 1564 46336 6229 95% 18 129716 874 16%
c p 47.99 670 21 16 1564 50005 11447 90% 18 129716 873 16%
c - 48.94 670 21 17 1564 52014 7141 88% 18 129714 873 16%
c O 50.30 670 22 17 1565 55024 9106 85% 18 129714 873 16%
c 
c  seconds   reductions     redundant   irredundant
c          MB     restarts         trail       variables
c           level      conflicts       glue        remaining
c 
c - 51.78 670 22 18 1567 58027 7345 83% 18 129714 873 16%
c ] 54.57 669 22 18 1571 63003 10188 80% 19 129714 873 16%
c { 54.57 669 19 18 1571 63003 10188 60% 13 129714 873 16%
c - 55.98 669 20 19 1874 64371 7676 60% 13 129714 873 16%
c B 56.52 669 20 19 1974 66031 8578 60% 13 129714 873 16%
c - 58.28 669 18 20 2086 71049 7349 60% 13 129714 873 16%
c p 60.90 669 18 20 2296 75007 13044 60% 13 129714 869 16%
c W 63.31 669 18 20 2527 78034 14571 60% 13 129702 869 16%
c - 63.36 669 18 21 2527 78061 8611 60% 13 129702 869 16%
c - 67.50 669 18 22 2911 85406 9130 60% 13 129702 869 16%
c s 68.36 669 17 22 2928 87682 10345 60% 13 129335 869 16%
c v 69.27 669 17 22 2928 87682 10345 60% 13 129322 869 16%
c w 69.35 669 17 22 2928 87682 10343 60% 13 129322 869 16%
c e 69.61 669 17 22 2928 87682 10313 60% 13 129319 866 16%
c s 69.79 669 17 22 2928 87682 10312 60% 13 129091 866 16%
c # 71.39 669 17 22 3049 91035 11958 61% 13 129091 866 16%
c - 72.03 669 17 23 3124 93087 8729 60% 12 129091 866 16%
c - 75.98 669 16 24 3530 101086 9323 60% 12 129091 866 16%
c p 78.41 669 16 24 3861 105008 14973 60% 12 129091 866 16%
c B 78.48 669 16 24 3861 105036 14989 60% 12 129091 866 16%
c 
c  seconds   reductions      redundant   irredundant
c          MB     restarts          trail       variables
c           level      conflicts        glue        remaining
c 
c - 80.28 669 16 25 4030 109418 9579 60% 12 129091 866 16%
c i 80.91 669 16 25 4034 111885 10543 60% 12 129091 865 16%
c - 83.91 669 16 26 4520 118083 8510 60% 12 129088 865 16%
c W 85.84 669 16 26 4656 120037 9337 60% 12 129088 865 16%
c } 88.72 669 16 26 5105 127005 13059 60% 12 129088 865 16%
c [ 88.72 669 22 26 5105 127005 13059 80% 19 129088 865 16%
c - 88.77 669 22 27 5105 127081 9929 80% 19 129088 865 16%
c i 89.82 669 24 27 5107 132445 13308 77% 20 129088 864 16%
c B 91.54 669 26 27 5110 136038 15804 76% 21 129088 864 16%
c - 91.78 669 26 28 5110 136415 8030 76% 21 129085 864 16%
c p 94.58 669 25 28 5112 140009 14028 74% 21 129085 857 16%
c s 97.02 669 25 28 5113 145443 17163 73% 21 128650 857 16%
c v 97.89 669 25 28 5113 145443 17163 73% 21 128631 857 16%
c w 98.00 669 25 28 5113 145443 17158 73% 21 128631 857 16%
c e 98.27 669 25 28 5113 145443 17053 73% 21 126951 847 16%
c s 98.54 669 25 28 5113 145443 17053 73% 21 126937 847 16%
c - 99.34 669 25 29 5113 146079 10847 73% 21 126937 847 16%
c W 102.84 669 26 29 5114 153039 15008 71% 22 126937 847 16%
c - 104.57 669 26 30 5114 156014 12136 70% 22 126937 847 16%
c - 108.71 669 26 31 5114 166280 12785 69% 22 126937 847 16%
c 
c  seconds    reductions       redundant   irredundant
c           MB     restarts           trail       variables
c            level      conflicts         glue        remaining
c 
c I 110.57 669 26 31 5117 171040 15381 68% 22 126937 847 16%
c - 113.33 669 25 32 5121 176875 12809 67% 21 126937 847 16%
c d 115.10 669 25 32 5121 180010 14575 67% 21 126830 846 16%
c 3 115.11 669 25 32 5121 180010 15321 67% 21 126830 846 16%
c 2 115.14 669 25 32 5121 180010 15355 67% 21 126829 846 16%
c p 116.02 669 25 32 5121 180010 18409 67% 21 126829 845 16%
c - 120.31 669 25 33 5127 187802 13473 66% 21 126827 845 16%
c B 121.08 669 25 33 5128 190041 14690 66% 21 126827 845 16%
c ] 122.18 669 25 33 5129 193149 16386 66% 21 126827 845 16%
c 1 122.18 669 25 33 5129 193149 16386 66% 21 126827 845 16%
c 
c --- [ writing output ] -----------------------------------------------------
c 
c writing simplified CNF to DIMACS file 'simp/12.cubes17.adj.simp1'
c * 122.18 669 25 33 5129 193149 16386 66% 21 126827 845 16%
c opening file to write 'simp/12.cubes17.adj.simp1'
c writing 'p cnf 5320 126827' header
c closing file 'simp/12.cubes17.adj.simp1'
c after writing 33313413 bytes 31.8 MB
c wrote 126827 clauses in 0.26 seconds process time
c 
c --- [ writing extension ] --------------------------------------------------
c 
c writing extension stack to 'simp/12.cubes17.adj.ext1'
c opening file to write 'simp/12.cubes17.adj.ext1'
c closing file 'simp/12.cubes17.adj.ext1'
c after writing 164313 bytes 0.2 MB
c wrote 7553 witnesses in 0.00 seconds process time
c 
c --- [ result ] -------------------------------------------------------------
c 
s SATISFIABLE
c 
c --- [ run-time profiling ] -------------------------------------------------
c 
c process time taken by individual solving procedures
c (percentage relative to process time for solving)
c 
c        96.61   85.30% search
c        47.40   41.85% unstable
c        47.29   41.76% stable
c        16.65   14.70% simplify
c         8.92    7.88% parse
c         8.12    7.17% probe
c         4.25    3.75% vivify
c         2.12    1.87% elim
c         1.58    1.39% walk
c         1.34    1.19% subsume
c         0.34    0.30% lucky
c         0.17    0.15% ternary
c   =================================
c       113.26   92.50% solve
c 
c last line shows process time for solving
c (percentage relative to total process time)
c 
c --- [ statistics ] ---------------------------------------------------------
c 
c chronological:             29633        15.34 %  of conflicts
c conflicts:                193149      1705.41    per second
c decisions:                310923      2745.30    per second
c eliminated:                 2875        54.04 %  of all variables
c fixed:                      1581        29.72 %  of all variables
c learned:                  189749        98.24 %  per conflict
c learned_lits:           26726079       100.00 %  learned literals
c minimized:                     0         0.00 %  learned literals
c shrunken:               18413482        68.90 %  learned literals
c minishrunken:            1414578         5.29 %  learned literals
c propagations:           15382256         0.14 M  per second
c reduced:                   79571        41.20 %  per conflict
c rephased:                     19     10165.74    interval
c restarts:                   5129        37.66    interval
c stabilizing:                   4        55.99 %  of conflicts
c substituted:                  19         0.36 %  of all variables
c subsumed:                  89581         3.75 %  of all clauses
c strengthened:              54450         2.28 %  of all clauses
c ternary:                    8722         0.73 %  of resolved
c vivified:                    195         0.01 %  of all clauses
c walked:                        5     38629.80    interval
c weakened:                   5972         2.85    average size
c 
c seconds are measured in process time for solving
c 
c --- [ resources ] ----------------------------------------------------------
c 
c total process time since initialization:       122.44    seconds
c total real time since initialization:          123.02    seconds
c maximum resident set size of process:          753.86    MB
c 
c --- [ shutting down ] ------------------------------------------------------
c 
c exit 10
WARNING! DIMACS header mismatch: wrong number of variables.
============================[ Problem Statistics ]=============================
|                                                                             |
|  Number of variables:          3158                                         |
|  Number of clauses:          126833                                         |
|  Parse time:                   0.55 s                                       |
|  Simplification time:          0.01 s                                       |
|                                                                             |
============================[ Search Statistics ]====================================================
| Conflicts |          ORIGINAL         |          LEARNT          | Num Sols |      SUBGRAPHS      |
|           |    Vars  Clauses Literals |    Limit  Clauses Lit/Cl |          | Canonical Noncanon. |
=====================================================================================================
|       101 |    3071   126834  7921065 |     2000      101     87 |        0 |        28         1 |
|       254 |    3071   126837  7921169 |     2000      254     77 |        0 |        35         4 |
|       519 |    3071   126877  7922010 |     2000      519     56 |        0 |        66        44 |
|       880 |    3071   126901  7922477 |     2000      880     49 |        0 |        81        68 |
|      1442 |    3071   126957  7923620 |     2000     1442     50 |        0 |       103       124 |
|      2213 |    3071   126969  7923867 |     3604     1217     35 |        0 |       131       136 |
|      3423 |    3071   127040  7925163 |     3604     2427     45 |        0 |       202       207 |
|      5191 |    3071   127100  7926597 |     5009     2400     35 |        0 |       308       267 |
|      7956 |    3071   127303  7930779 |     6314     2670     31 |        0 |       437       470 |
|     11931 |    3071   127434  7933331 |     7565     3496     31 |        0 |       583       601 |
|     18115 |    3071   127852  7940425 |     8793     5908     51 |        0 |       742      1019 |
|     27130 |    3071   128218  7947531 |    11204     5534     25 |        0 |      1213      1385 |
|     40430 |    3071   128544  7954526 |    13604     7034     26 |        0 |      1507      1711 |
|     60767 |    3071   129420  7970427 |    16002    13169     46 |        0 |      1928      2587 |
|     91591 |    3071   131052  7993805 |    19608    18199     55 |        0 |      2996      4219 |
|    136804 |    3071   132476  8015378 |    24405    20609     54 |        0 |      3976      5643 |
|    206125 |    3071   136113  8071851 |    30413    22938     47 |        0 |      5422      9280 |
|    311339 |    3071   142801  8153520 |    37608    27947     34 |        0 |      7568     15968 |
=====================================================================================================
Number of solutions   : 0
Canonical subgraphs   : 10458          (308 /sec)
          order  3    : 1              (166667 /sec)
          order  4    : 1              (500000 /sec)
          order  5    : 1              (250000 /sec)
          order  6    : 2              (51282 /sec)
          order  7    : 4              (13889 /sec)
          order  8    : 9              (3476 /sec)
          order  9    : 37             (1085 /sec)
          order 10    : 212            (759 /sec)
          order 11    : 980            (429 /sec)
          order 12    : 3581           (341 /sec)
          order 13    : 4117           (294 /sec)
          order 14    : 1374           (222 /sec)
          order 15    : 123            (205 /sec)
          order 16    : 11             (173 /sec)
          order 17    : 2              (240 /sec)
          order 18    : 1              (383 /sec)
          order 19    : 1              (362 /sec)
          order 20    : 1              (344 /sec)
          order 21    : 0              (-nan /sec)
Noncanonical subgraphs: 20801          (2203 /sec)
          order  3    : 0              (-nan /sec)
          order  4    : 0              (-nan /sec)
          order  5    : 0              (-nan /sec)
          order  6    : 0              (-nan /sec)
          order  7    : 0              (-nan /sec)
          order  8    : 0              (-nan /sec)
          order  9    : 0              (-nan /sec)
          order 10    : 0              (-nan /sec)
          order 11    : 0              (-nan /sec)
          order 12    : 0              (-nan /sec)
          order 13    : 19616          (2277 /sec)
          order 14    : 1180           (1430 /sec)
          order 15    : 4              (57971 /sec)
          order 16    : 0              (-nan /sec)
          order 17    : 0              (-nan /sec)
          order 18    : 0              (-nan /sec)
          order 19    : 0              (-nan /sec)
          order 20    : 0              (-nan /sec)
Canonicity checking   : 33.9599 s
Noncanonicity checking: 9.44263 s
Total canonicity time : 43.4025 s
database reductions   : 31
restarts              : 823
conflicts             : 346435         (2343 /sec)
decisions             : 470170         (0.00 % random) (3180 /sec)
propagations          : 18459429       (124857 /sec)
conflict literals     : 26570245       (54.03 % deleted)
actual reward         : 0.227157
Memory used           : 117.00 MB
CPU time              : 147.844 s

UNSATISFIABLE
